clingo version 5.7.2
Reading from ../axioms/dec_clingo.lp ...
Solving...
Answer: 1 (Time: 0.022s)
happens(toss,10) happens(toss,20) happens(toss,30) holdsAt(heads,0) holdsAt(itsHeads,0) holdsAt(itsHeads,1) holdsAt(itsHeads,2) holdsAt(itsHeads,3) holdsAt(itsHeads,4) holdsAt(itsHeads,5) holdsAt(itsHeads,6) holdsAt(itsHeads,7) holdsAt(itsHeads,8) holdsAt(itsHeads,9) holdsAt(itsHeads,11) holdsAt(itsHeads,12) holdsAt(itsHeads,13) holdsAt(itsHeads,14) holdsAt(itsHeads,15) holdsAt(itsHeads,16) holdsAt(itsHeads,17) holdsAt(itsHeads,18) holdsAt(itsHeads,19) holdsAt(itsHeads,21) holdsAt(itsHeads,22) holdsAt(itsHeads,23) holdsAt(itsHeads,24) holdsAt(itsHeads,25) holdsAt(itsHeads,26) holdsAt(itsHeads,27) holdsAt(itsHeads,28) holdsAt(itsHeads,29) holdsAt(itsHeads,31) holdsAt(itsHeads,32) holdsAt(itsHeads,33) holdsAt(itsHeads,34) holdsAt(itsHeads,35) holdsAt(itsHeads,36) holdsAt(itsHeads,37) holdsAt(itsHeads,38) holdsAt(itsHeads,39) holdsAt(itsHeads,40) holdsAt(heads,1) holdsAt(heads,2) holdsAt(heads,3) holdsAt(heads,4) holdsAt(heads,5) holdsAt(heads,6) holdsAt(heads,7) holdsAt(heads,8) holdsAt(heads,9) holdsAt(heads,10)
Answer: 2 (Time: 0.023s)
happens(toss,10) happens(toss,20) happens(toss,30) holdsAt(heads,0) holdsAt(itsHeads,0) holdsAt(itsHeads,1) holdsAt(itsHeads,2) holdsAt(itsHeads,3) holdsAt(itsHeads,4) holdsAt(itsHeads,5) holdsAt(itsHeads,6) holdsAt(itsHeads,7) holdsAt(itsHeads,8) holdsAt(itsHeads,9) holdsAt(itsHeads,11) holdsAt(itsHeads,12) holdsAt(itsHeads,13) holdsAt(itsHeads,14) holdsAt(itsHeads,15) holdsAt(itsHeads,16) holdsAt(itsHeads,17) holdsAt(itsHeads,18) holdsAt(itsHeads,19) holdsAt(itsHeads,21) holdsAt(itsHeads,22) holdsAt(itsHeads,23) holdsAt(itsHeads,24) holdsAt(itsHeads,25) holdsAt(itsHeads,26) holdsAt(itsHeads,27) holdsAt(itsHeads,28) holdsAt(itsHeads,29) holdsAt(itsHeads,31) holdsAt(itsHeads,32) holdsAt(itsHeads,33) holdsAt(itsHeads,34) holdsAt(itsHeads,35) holdsAt(itsHeads,36) holdsAt(itsHeads,37) holdsAt(itsHeads,38) holdsAt(itsHeads,39) holdsAt(itsHeads,40) holdsAt(itsHeads,30) holdsAt(heads,1) holdsAt(heads,2) holdsAt(heads,3) holdsAt(heads,4) holdsAt(heads,5) holdsAt(heads,6) holdsAt(heads,7) holdsAt(heads,8) holdsAt(heads,9) holdsAt(heads,10) holdsAt(heads,31) holdsAt(heads,32) holdsAt(heads,33) holdsAt(heads,34) holdsAt(heads,35) holdsAt(heads,36) holdsAt(heads,37) holdsAt(heads,38) holdsAt(heads,39) holdsAt(heads,40)
Answer: 3 (Time: 0.023s)
happens(toss,10) happens(toss,20) happens(toss,30) holdsAt(heads,0) holdsAt(itsHeads,0) holdsAt(itsHeads,1) holdsAt(itsHeads,2) holdsAt(itsHeads,3) holdsAt(itsHeads,4) holdsAt(itsHeads,5) holdsAt(itsHeads,6) holdsAt(itsHeads,7) holdsAt(itsHeads,8) holdsAt(itsHeads,9) holdsAt(itsHeads,11) holdsAt(itsHeads,12) holdsAt(itsHeads,13) holdsAt(itsHeads,14) holdsAt(itsHeads,15) holdsAt(itsHeads,16) holdsAt(itsHeads,17) holdsAt(itsHeads,18) holdsAt(itsHeads,19) holdsAt(itsHeads,21) holdsAt(itsHeads,22) holdsAt(itsHeads,23) holdsAt(itsHeads,24) holdsAt(itsHeads,25) holdsAt(itsHeads,26) holdsAt(itsHeads,27) holdsAt(itsHeads,28) holdsAt(itsHeads,29) holdsAt(itsHeads,31) holdsAt(itsHeads,32) holdsAt(itsHeads,33) holdsAt(itsHeads,34) holdsAt(itsHeads,35) holdsAt(itsHeads,36) holdsAt(itsHeads,37) holdsAt(itsHeads,38) holdsAt(itsHeads,39) holdsAt(itsHeads,40) holdsAt(itsHeads,10) holdsAt(heads,1) holdsAt(heads,2) holdsAt(heads,3) holdsAt(heads,4) holdsAt(heads,5) holdsAt(heads,6) holdsAt(heads,7) holdsAt(heads,8) holdsAt(heads,9) holdsAt(heads,10) holdsAt(heads,11) holdsAt(heads,12) holdsAt(heads,13) holdsAt(heads,14) holdsAt(heads,15) holdsAt(heads,16) holdsAt(heads,17) holdsAt(heads,18) holdsAt(heads,19) holdsAt(heads,20)
Answer: 4 (Time: 0.024s)
happens(toss,10) happens(toss,20) happens(toss,30) holdsAt(heads,0) holdsAt(itsHeads,0) holdsAt(itsHeads,1) holdsAt(itsHeads,2) holdsAt(itsHeads,3) holdsAt(itsHeads,4) holdsAt(itsHeads,5) holdsAt(itsHeads,6) holdsAt(itsHeads,7) holdsAt(itsHeads,8) holdsAt(itsHeads,9) holdsAt(itsHeads,11) holdsAt(itsHeads,12) holdsAt(itsHeads,13) holdsAt(itsHeads,14) holdsAt(itsHeads,15) holdsAt(itsHeads,16) holdsAt(itsHeads,17) holdsAt(itsHeads,18) holdsAt(itsHeads,19) holdsAt(itsHeads,21) holdsAt(itsHeads,22) holdsAt(itsHeads,23) holdsAt(itsHeads,24) holdsAt(itsHeads,25) holdsAt(itsHeads,26) holdsAt(itsHeads,27) holdsAt(itsHeads,28) holdsAt(itsHeads,29) holdsAt(itsHeads,31) holdsAt(itsHeads,32) holdsAt(itsHeads,33) holdsAt(itsHeads,34) holdsAt(itsHeads,35) holdsAt(itsHeads,36) holdsAt(itsHeads,37) holdsAt(itsHeads,38) holdsAt(itsHeads,39) holdsAt(itsHeads,40) holdsAt(itsHeads,10) holdsAt(itsHeads,30) holdsAt(heads,1) holdsAt(heads,2) holdsAt(heads,3) holdsAt(heads,4) holdsAt(heads,5) holdsAt(heads,6) holdsAt(heads,7) holdsAt(heads,8) holdsAt(heads,9) holdsAt(heads,10) holdsAt(heads,11) holdsAt(heads,12) holdsAt(heads,13) holdsAt(heads,14) holdsAt(heads,15) holdsAt(heads,16) holdsAt(heads,17) holdsAt(heads,18) holdsAt(heads,19) holdsAt(heads,20) holdsAt(heads,31) holdsAt(heads,32) holdsAt(heads,33) holdsAt(heads,34) holdsAt(heads,35) holdsAt(heads,36) holdsAt(heads,37) holdsAt(heads,38) holdsAt(heads,39) holdsAt(heads,40)
Answer: 5 (Time: 0.024s)
happens(toss,10) happens(toss,20) happens(toss,30) holdsAt(heads,0) holdsAt(itsHeads,0) holdsAt(itsHeads,1) holdsAt(itsHeads,2) holdsAt(itsHeads,3) holdsAt(itsHeads,4) holdsAt(itsHeads,5) holdsAt(itsHeads,6) holdsAt(itsHeads,7) holdsAt(itsHeads,8) holdsAt(itsHeads,9) holdsAt(itsHeads,11) holdsAt(itsHeads,12) holdsAt(itsHeads,13) holdsAt(itsHeads,14) holdsAt(itsHeads,15) holdsAt(itsHeads,16) holdsAt(itsHeads,17) holdsAt(itsHeads,18) holdsAt(itsHeads,19) holdsAt(itsHeads,21) holdsAt(itsHeads,22) holdsAt(itsHeads,23) holdsAt(itsHeads,24) holdsAt(itsHeads,25) holdsAt(itsHeads,26) holdsAt(itsHeads,27) holdsAt(itsHeads,28) holdsAt(itsHeads,29) holdsAt(itsHeads,31) holdsAt(itsHeads,32) holdsAt(itsHeads,33) holdsAt(itsHeads,34) holdsAt(itsHeads,35) holdsAt(itsHeads,36) holdsAt(itsHeads,37) holdsAt(itsHeads,38) holdsAt(itsHeads,39) holdsAt(itsHeads,40) holdsAt(itsHeads,20) holdsAt(heads,1) holdsAt(heads,2) holdsAt(heads,3) holdsAt(heads,4) holdsAt(heads,5) holdsAt(heads,6) holdsAt(heads,7) holdsAt(heads,8) holdsAt(heads,9) holdsAt(heads,10) holdsAt(heads,21) holdsAt(heads,22) holdsAt(heads,23) holdsAt(heads,24) holdsAt(heads,25) holdsAt(heads,26) holdsAt(heads,27) holdsAt(heads,28) holdsAt(heads,29) holdsAt(heads,30)
Answer: 6 (Time: 0.025s)
happens(toss,10) happens(toss,20) happens(toss,30) holdsAt(heads,0) holdsAt(itsHeads,0) holdsAt(itsHeads,1) holdsAt(itsHeads,2) holdsAt(itsHeads,3) holdsAt(itsHeads,4) holdsAt(itsHeads,5) holdsAt(itsHeads,6) holdsAt(itsHeads,7) holdsAt(itsHeads,8) holdsAt(itsHeads,9) holdsAt(itsHeads,11) holdsAt(itsHeads,12) holdsAt(itsHeads,13) holdsAt(itsHeads,14) holdsAt(itsHeads,15) holdsAt(itsHeads,16) holdsAt(itsHeads,17) holdsAt(itsHeads,18) holdsAt(itsHeads,19) holdsAt(itsHeads,21) holdsAt(itsHeads,22) holdsAt(itsHeads,23) holdsAt(itsHeads,24) holdsAt(itsHeads,25) holdsAt(itsHeads,26) holdsAt(itsHeads,27) holdsAt(itsHeads,28) holdsAt(itsHeads,29) holdsAt(itsHeads,31) holdsAt(itsHeads,32) holdsAt(itsHeads,33) holdsAt(itsHeads,34) holdsAt(itsHeads,35) holdsAt(itsHeads,36) holdsAt(itsHeads,37) holdsAt(itsHeads,38) holdsAt(itsHeads,39) holdsAt(itsHeads,40) holdsAt(itsHeads,10) holdsAt(itsHeads,20) holdsAt(heads,1) holdsAt(heads,2) holdsAt(heads,3) holdsAt(heads,4) holdsAt(heads,5) holdsAt(heads,6) holdsAt(heads,7) holdsAt(heads,8) holdsAt(heads,9) holdsAt(heads,10) holdsAt(heads,11) holdsAt(heads,12) holdsAt(heads,13) holdsAt(heads,14) holdsAt(heads,15) holdsAt(heads,16) holdsAt(heads,17) holdsAt(heads,18) holdsAt(heads,19) holdsAt(heads,20) holdsAt(heads,21) holdsAt(heads,22) holdsAt(heads,23) holdsAt(heads,24) holdsAt(heads,25) holdsAt(heads,26) holdsAt(heads,27) holdsAt(heads,28) holdsAt(heads,29) holdsAt(heads,30)
Answer: 7 (Time: 0.026s)
happens(toss,10) happens(toss,20) happens(toss,30) holdsAt(heads,0) holdsAt(itsHeads,0) holdsAt(itsHeads,1) holdsAt(itsHeads,2) holdsAt(itsHeads,3) holdsAt(itsHeads,4) holdsAt(itsHeads,5) holdsAt(itsHeads,6) holdsAt(itsHeads,7) holdsAt(itsHeads,8) holdsAt(itsHeads,9) holdsAt(itsHeads,11) holdsAt(itsHeads,12) holdsAt(itsHeads,13) holdsAt(itsHeads,14) holdsAt(itsHeads,15) holdsAt(itsHeads,16) holdsAt(itsHeads,17) holdsAt(itsHeads,18) holdsAt(itsHeads,19) holdsAt(itsHeads,21) holdsAt(itsHeads,22) holdsAt(itsHeads,23) holdsAt(itsHeads,24) holdsAt(itsHeads,25) holdsAt(itsHeads,26) holdsAt(itsHeads,27) holdsAt(itsHeads,28) holdsAt(itsHeads,29) holdsAt(itsHeads,31) holdsAt(itsHeads,32) holdsAt(itsHeads,33) holdsAt(itsHeads,34) holdsAt(itsHeads,35) holdsAt(itsHeads,36) holdsAt(itsHeads,37) holdsAt(itsHeads,38) holdsAt(itsHeads,39) holdsAt(itsHeads,40) holdsAt(itsHeads,20) holdsAt(itsHeads,30) holdsAt(heads,1) holdsAt(heads,2) holdsAt(heads,3) holdsAt(heads,4) holdsAt(heads,5) holdsAt(heads,6) holdsAt(heads,7) holdsAt(heads,8) holdsAt(heads,9) holdsAt(heads,10) holdsAt(heads,21) holdsAt(heads,22) holdsAt(heads,23) holdsAt(heads,24) holdsAt(heads,25) holdsAt(heads,26) holdsAt(heads,27) holdsAt(heads,28) holdsAt(heads,29) holdsAt(heads,30) holdsAt(heads,31) holdsAt(heads,32) holdsAt(heads,33) holdsAt(heads,34) holdsAt(heads,35) holdsAt(heads,36) holdsAt(heads,37) holdsAt(heads,38) holdsAt(heads,39) holdsAt(heads,40)
Answer: 8 (Time: 0.026s)
happens(toss,10) happens(toss,20) happens(toss,30) holdsAt(heads,0) holdsAt(itsHeads,0) holdsAt(itsHeads,1) holdsAt(itsHeads,2) holdsAt(itsHeads,3) holdsAt(itsHeads,4) holdsAt(itsHeads,5) holdsAt(itsHeads,6) holdsAt(itsHeads,7) holdsAt(itsHeads,8) holdsAt(itsHeads,9) holdsAt(itsHeads,11) holdsAt(itsHeads,12) holdsAt(itsHeads,13) holdsAt(itsHeads,14) holdsAt(itsHeads,15) holdsAt(itsHeads,16) holdsAt(itsHeads,17) holdsAt(itsHeads,18) holdsAt(itsHeads,19) holdsAt(itsHeads,21) holdsAt(itsHeads,22) holdsAt(itsHeads,23) holdsAt(itsHeads,24) holdsAt(itsHeads,25) holdsAt(itsHeads,26) holdsAt(itsHeads,27) holdsAt(itsHeads,28) holdsAt(itsHeads,29) holdsAt(itsHeads,31) holdsAt(itsHeads,32) holdsAt(itsHeads,33) holdsAt(itsHeads,34) holdsAt(itsHeads,35) holdsAt(itsHeads,36) holdsAt(itsHeads,37) holdsAt(itsHeads,38) holdsAt(itsHeads,39) holdsAt(itsHeads,40) holdsAt(itsHeads,10) holdsAt(itsHeads,20) holdsAt(itsHeads,30) holdsAt(heads,1) holdsAt(heads,2) holdsAt(heads,3) holdsAt(heads,4) holdsAt(heads,5) holdsAt(heads,6) holdsAt(heads,7) holdsAt(heads,8) holdsAt(heads,9) holdsAt(heads,10) holdsAt(heads,11) holdsAt(heads,12) holdsAt(heads,13) holdsAt(heads,14) holdsAt(heads,15) holdsAt(heads,16) holdsAt(heads,17) holdsAt(heads,18) holdsAt(heads,19) holdsAt(heads,20) holdsAt(heads,21) holdsAt(heads,22) holdsAt(heads,23) holdsAt(heads,24) holdsAt(heads,25) holdsAt(heads,26) holdsAt(heads,27) holdsAt(heads,28) holdsAt(heads,29) holdsAt(heads,30) holdsAt(heads,31) holdsAt(heads,32) holdsAt(heads,33) holdsAt(heads,34) holdsAt(heads,35) holdsAt(heads,36) holdsAt(heads,37) holdsAt(heads,38) holdsAt(heads,39) holdsAt(heads,40)
SATISFIABLE

Models       : 8
Calls        : 1
Time         : 0.027s (Solving: 0.01s 1st Model: 0.00s Unsat: 0.00s)
CPU Time     : 0.010s
